; Stooge sort
(declare-datatypes (a b)
  ((pair (pair2 (proj1-pair a) (proj2-pair b)))))
(declare-datatypes (a)
  ((list (nil) (cons (head a) (tail (list a))))))
(define-fun-rec
  (par (a)
    (take
       ((x Int) (y (list a))) (list a)
       (ite
         (<= x 0) (_ nil a)
         (match y
           (case nil (_ nil a))
           (case (cons z xs) (cons z (take (- x 1) xs))))))))
(define-fun
  sort2
    ((x Int) (y Int)) (list Int)
    (ite
      (<= x y) (cons x (cons y (_ nil Int)))
      (cons y (cons x (_ nil Int)))))
(define-fun-rec
  (par (a)
    (length
       ((x (list a))) Int
       (match x
         (case nil 0)
         (case (cons y l) (+ 1 (length l)))))))
(define-fun-rec
  insert
    ((x Int) (y (list Int))) (list Int)
    (match y
      (case nil (cons x (_ nil Int)))
      (case (cons z xs)
        (ite (<= x z) (cons x y) (cons z (insert x xs))))))
(define-fun-rec
  isort
    ((x (list Int))) (list Int)
    (match x
      (case nil (_ nil Int))
      (case (cons y xs) (insert y (isort xs)))))
(define-fun-rec
  (par (a)
    (drop
       ((x Int) (y (list a))) (list a)
       (ite
         (<= x 0) y
         (match y
           (case nil (_ nil a))
           (case (cons z xs1) (drop (- x 1) xs1)))))))
(define-fun
  (par (a)
    (splitAt
       ((x Int) (y (list a))) (pair (list a) (list a))
       (pair2 (take x y) (drop x y)))))
(define-fun-rec
  (par (a)
    (++
       ((x (list a)) (y (list a))) (list a)
       (match x
         (case nil y)
         (case (cons z xs) (cons z (++ xs y)))))))
(define-funs-rec
  ((stooge2sort2 ((x (list Int))) (list Int))
   (stoogesort2 ((x (list Int))) (list Int))
   (stooge2sort1 ((x (list Int))) (list Int)))
  ((match (splitAt (div (+ (* 2 (length x)) 1) 3) x)
     (case (pair2 ys1 zs) (++ (stoogesort2 ys1) zs)))
   (match x
     (case nil (_ nil Int))
     (case (cons y z)
       (match z
         (case nil (cons y (_ nil Int)))
         (case (cons y2 x2)
           (match x2
             (case nil (sort2 y y2))
             (case (cons x3 x4)
               (stooge2sort2 (stooge2sort1 (stooge2sort2 x)))))))))
   (match (splitAt (div (length x) 3) x)
     (case (pair2 ys1 zs) (++ ys1 (stoogesort2 zs))))))
(prove (forall ((xs (list Int))) (= (stoogesort2 xs) (isort xs))))
